\ENCODING=ISO-8859-1
\Problem name: IloCplex

Maximize
 obj: 1.94983736316855 x2 + 2.92475604475282 x3 + 0.968844221105527 x4
      - 3.90574918681523 x5 - 3.90574918681585 x6 - 1488.92779327499 x7
      - 6.34304589077591 x8
Subject To
 c1: x1 <= 0
 c2: 4 x2 + 6 x3 + 4 x4 - 5 x5 - 1000 x6 <= 20
 c3: 4 x2 + 6 x3 + 4 x4 - 5 x7 >= -20
 c4: x5 + x6 + x7 + x8  = 1
Bounds
 0 <= x1 <= 1
 0 <= x2 <= 1
 0 <= x3 <= 1
 0 <= x4 <= 1
 0 <= x5 <= 1
 0 <= x6 <= 1
 0 <= x7 <= 1
 0 <= x8 <= 1
Binaries
 x1  x2  x3  x4  x5  x6  x7  x8 
End
